c A SAT instance generated from a 3-CNF formula that had 99 clauses and 11 variables
p cnf 11 99
-3 -8 -4 0
5 10 7 0
3 2 -5 0
2 7 -10 0
-5 -8 -9 0
5 6 8 0
-8 1 -11 0
-2 4 6 0
5 1 -6 0
11 7 -8 0
2 6 -7 0
9 7 -6 0
3 -9 -10 0
-7 -9 4 0
-5 -11 6 0
2 -1 10 0
11 2 -10 0
10 5 -11 0
3 -1 8 0
-11 6 -8 0
11 3 6 0
9 -8 5 0
-4 6 -8 0
-11 -5 -2 0
7 -2 -8 0
3 9 -5 0
3 -8 5 0
-4 -5 2 0
-7 9 -3 0
6 10 -9 0
5 -3 7 0
-8 -3 6 0
-2 9 -5 0
2 10 5 0
-10 5 6 0
-7 -5 4 0
10 11 -3 0
8 -6 -11 0
1 -3 11 0
-11 3 10 0
2 -6 -11 0
-4 -5 -3 0
-5 -2 -8 0
-6 3 8 0
9 -10 4 0
5 -3 7 0
-8 -4 -1 0
-7 -6 -4 0
5 8 -6 0
-4 -10 -1 0
11 -3 8 0
2 -1 3 0
11 8 -5 0
4 -5 3 0
-6 -10 -3 0
4 10 -1 0
-11 2 10 0
2 -10 1 0
-2 4 11 0
8 11 3 0
9 2 -8 0
-9 -5 -7 0
-8 -6 9 0
9 -5 1 0
-9 5 4 0
3 5 -10 0
-11 -5 8 0
7 11 -10 0
-4 -2 -6 0
-3 4 -7 0
-8 -11 3 0
8 -1 -4 0
-5 6 7 0
1 -10 2 0
7 4 6 0
1 -10 9 0
1 -2 -8 0
9 -4 -2 0
-1 -2 7 0
-9 -7 -3 0
-9 -5 -7 0
7 -11 -10 0
4 -1 -3 0
11 -5 9 0
-7 2 -5 0
3 1 11 0
10 8 7 0
9 -1 3 0
11 -10 9 0
-9 6 -11 0
-1 -8 7 0
-6 -4 -8 0
1 10 4 0
11 -4 1 0
-11 -3 -7 0
-7 10 6 0
-11 1 3 0
6 10 -8 0
7 -5 1 0
